p cnf 45 143
1 -2 0
2 -1 0
3 -4 0
4 -3 0
5 -6 0
6 -5 0
7 -8 0
8 -7 0
9 -10 0
10 -9 0
11 -12 0
12 -11 0
13 -14 0
14 -13 0
15 -16 0
16 -15 0
17 -18 0
18 -17 0
19 -20 0
20 -19 0
1 21 0
11 21 0
-1 -11 -21 0
13 22 0
22 -21 0
21 -13 -22 0
3 23 0
13 23 0
-3 -13 -23 0
3 24 0
24 -21 0
-3 21 -24 0
15 25 0
25 -23 -24 -22 0
24 -25 -15 0
-25 -15 23 0
22 -25 -15 0
15 26 0
5 26 0
-15 -5 -26 0
5 27 0
27 -23 -24 -22 0
24 -27 -5 0
-27 -5 23 0
22 -27 -5 0
17 28 0
-27 -25 28 -26 0
27 -28 -17 0
-28 -17 26 0
25 -28 -17 0
17 29 0
7 29 0
-17 -29 -7 0
7 30 0
-27 -25 -26 30 0
27 -7 -30 0
26 -7 -30 0
25 -7 -30 0
-19 30 0
29 -19 0
28 -19 0
-9 0
-19 0
11 -31 -13 0
-11 13 -31 0
31 -11 -13 0
11 13 31 0
11 -13 -32 0
-11 13 -32 0
32 -11 -13 0
11 13 32 0
-11 33 0
32 33 0
-11 33 32 0
11 -33 -32 0
34 -11 0
34 -13 0
11 13 -34 0
34 -35 -15 0
15 -34 -35 0
-34 -15 35 0
15 34 35 0
33 35 5 0
-35 -33 5 0
-33 -5 35 0
-35 33 -5 0
1 36 0
3 36 0
-1 -3 -36 0
-5 -7 0
36 -7 0
11 37 0
13 37 0
-11 -13 -37 0
-15 -17 0
37 -17 0
-9 30 0
29 -9 0
28 -9 0
-19 -9 0
-15 38 0
-34 38 0
15 34 -38 0
-39 -17 38 0
-39 -38 17 0
-38 -17 39 0
39 17 38 0
33 40 0
-35 40 0
-40 -33 35 0
40 39 7 0
-39 -40 7 0
-39 40 -7 0
-40 39 -7 0
11 -1 -41 0
1 -11 -41 0
41 -1 -11 0
1 41 11 0
-41 0
39 42 0
40 42 0
39 40 42 0
-39 -40 -42 0
43 -17 0
43 -38 0
17 38 -43 0
43 -19 -44 0
-43 19 -44 0
-43 44 -19 0
19 43 44 0
42 44 9 0
-42 -44 9 0
44 -42 -9 0
42 -44 -9 0
-45 11 32 3 0
-45 -11 -3 32 0
-45 11 -3 -32 0
-45 -11 3 -32 0
-11 -3 -32 45 0
11 3 -32 45 0
-11 32 3 45 0
11 -3 32 45 0
-45 0
